# Node Net
 49   1
 20   1
1620   1
3569   1
300   2
 16   2
 30   2
2041   2
2640   3
3559   3
 34   3
 43   3
3591   4
480   4
1261   4
3300   4
 23   5
2281   5
 46   5
3563   5
3567   6
2280   6
 40   6
3241   7
3001   7
3581   7
3553   8
  9   8
3560   8
2701   9
840   9
3589   9
 56  10
2401  10
 45  10
361  11
3420  11
  3  11
 14  12
3587  12
2761  12
1501  13
  2  13
